sing20180525.12
TTAA 75121 48698
99004 30056 08004 00062 29456 05507 92753 24257 05007
85487 18627 04510 70135 10628 08514 50587 03344 11013
40761 13160 07505 30973 28570 03504 25101 38916 05506
20250 51350 10516 15430 67529 07520 10663 83548 10035
88103 83549 09527
77999=
TTCC 75127 48698
70865 73770 27528
88999
77999=
TTDD 7512/ 48698
11941 77959 22777 82956 33691 73370 44650 74967
21212 11964 09010 22947 01001 33906 34510 44852 30018
55804 29013 66772 30010 77748 26505 88728 27010 99680
27533 11650 28525=
